mapa = [|
         9,9,9,9,9,9,9,9,9,9,9|
         9,0,0,9,8,8,8,9,0,0,9|
         9,0,0,1,8,8,8,1,0,0,9|
         9,0,0,1,9,9,9,1,0,0,9|
         9,0,0,1,8,8,8,1,0,0,9|
         9,9,9,9,8,8,8,9,9,9,9|
         9,9,9,9,9,9,9,9,9,9,9|];
dimx = 7;
dimy = 11;
filav = 2;
colav = 6;
